6397
1 1 0 0 0 1 0 0 1 1 0 0 1 1 1 0 0 1 0 0 
0 0 0 0 0 0 1 1 1 1 1 0 0 1 1 5 5 5 5 5 5 5 5 5 9 5 5 5 5 5 5 8 8 8 8 8 9 9 9 9 9 9 8 8 12 12 12 9 12 13 12 13 13 12 13 14 14 12 14 13 17 14 14 14 14 17 17 17 17 17 17 17 17 17 17 17 17 17 17 17 
